-----------------------------------------------------------------------------
  			 			    LP relaxation	                                
-----------------------------------------------------------------------------
x [*,*]
:    1   2   3   4   5   6   7   8   9  10  11  12  13  14  15  16  17  18  19 :=
1    1   0   0   0   0   0   0   0   0   0   0   0   0   0   0   0   0   0   0
2    1   0   0   0   0   0   0   0   0   0   0   0   0   0   0   0   0   0   0
3    1   0   0   0   0   0   0   0   0   0   0   0   0   0   0   0   0   0   0
4    0   1   0   0   0   0   0   0   0   0   0   0   0   0   0   0   0   0   0
5    0   1   0   0   0   0   0   0   0   0   0   0   0   0   0   0   0   0   0
6    0   0   1   0   0   0   0   0   0   0   0   0   0   0   0   0   0   0   0
7    0   1   0   0   0   0   0   0   0   0   0   0   0   0   0   0   0   0   0
8    0   0   1   0   0   0   0   0   0   0   0   0   0   0   0   0   0   0   0
9    0   0   1   0   0   0   0   0   0   0   0   0   0   0   0   0   0   0   0
10   0   0   0   1   0   0   0   0   0   0   0   0   0   0   0   0   0   0   0
11   0   0   0   1   0   0   0   0   0   0   0   0   0   0   0   0   0   0   0
12   0   0   0   1   0   0   0   0   0   0   0   0   0   0   0   0   0   0   0
13   0   0   0   0   1   0   0   0   0   0   0   0   0   0   0   0   0   0   0
14   0   0   1   0   0   0   0   0   0   0   0   0   0   0   0   0   0   0   0
15   0   0   0   1   0   0   0   0   0   0   0   0   0   0   0   0   0   0   0
16   0   0   0   0   1   0   0   0   0   0   0   0   0   0   0   0   0   0   0
17   0   0   0   0   1   0   0   0   0   0   0   0   0   0   0   0   0   0   0
18   0   0   0   0   0   1   0   0   0   0   0   0   0   0   0   0   0   0   0
19   0   0   0   0   0   1   0   0   0   0   0   0   0   0   0   0   0   0   0
20   0   0   0   0   0   1   0   0   0   0   0   0   0   0   0   0   0   0   0
21   0   0   0   0   0   0   1   0   0   0   0   0   0   0   0   0   0   0   0
22   0   0   0   0   0   0   1   0   0   0   0   0   0   0   0   0   0   0   0
23   0   0   0   0   1   0   0   0   0   0   0   0   0   0   0   0   0   0   0
24   0   0   0   0   0   0   1   0   0   0   0   0   0   0   0   0   0   0   0
25   0   0   0   0   0   0   0   1   0   0   0   0   0   0   0   0   0   0   0
26   0   0   0   0   0   1   0   0   0   0   0   0   0   0   0   0   0   0   0
27   0   0   0   0   0   0   0   1   0   0   0   0   0   0   0   0   0   0   0
28   0   0   0   0   0   0   0   1   0   0   0   0   0   0   0   0   0   0   0
29   0   0   0   0   0   0   0   0   1   0   0   0   0   0   0   0   0   0   0
30   0   0   0   0   0   0   0   0   1   0   0   0   0   0   0   0   0   0   0
31   0   0   0   0   0   0   0   0   0   1   0   0   0   0   0   0   0   0   0
32   0   0   0   0   0   0   0   0   0   1   0   0   0   0   0   0   0   0   0
33   0   0   0   0   0   0   0   0   0   0   1   0   0   0   0   0   0   0   0
34   0   0   0   0   0   0   0   0   1   0   0   0   0   0   0   0   0   0   0
35   0   0   0   0   0   0   0   0   0   1   0   0   0   0   0   0   0   0   0
36   0   0   0   0   0   0   0   0   0   0   1   0   0   0   0   0   0   0   0
37   0   0   0   0   0   0   0   0   0   0   0   1   0   0   0   0   0   0   0
38   0   0   0   0   0   0   0   0   0   0   0   1   0   0   0   0   0   0   0
39   1   0   0   0   0   0   0   0   0   0   0   0   0   0   0   0   0   0   0
40   0   0   0   0   0   0   1   0   0   0   0   0   0   0   0   0   0   0   0

:   20  21  22  23  24  25  26  27  28  29  30  31  32  33  34  35  36  37  38 :=
1    0   0   0   0   0   0   0   0   0   0   0   0   0   0   0   0   0   0   0
2    0   0   0   0   0   0   0   0   0   0   0   0   0   0   0   0   0   0   0
3    0   0   0   0   0   0   0   0   0   0   0   0   0   0   0   0   0   0   0
4    0   0   0   0   0   0   0   0   0   0   0   0   0   0   0   0   0   0   0
5    0   0   0   0   0   0   0   0   0   0   0   0   0   0   0   0   0   0   0
6    0   0   0   0   0   0   0   0   0   0   0   0   0   0   0   0   0   0   0
7    0   0   0   0   0   0   0   0   0   0   0   0   0   0   0   0   0   0   0
8    0   0   0   0   0   0   0   0   0   0   0   0   0   0   0   0   0   0   0
9    0   0   0   0   0   0   0   0   0   0   0   0   0   0   0   0   0   0   0
10   0   0   0   0   0   0   0   0   0   0   0   0   0   0   0   0   0   0   0
11   0   0   0   0   0   0   0   0   0   0   0   0   0   0   0   0   0   0   0
12   0   0   0   0   0   0   0   0   0   0   0   0   0   0   0   0   0   0   0
13   0   0   0   0   0   0   0   0   0   0   0   0   0   0   0   0   0   0   0
14   0   0   0   0   0   0   0   0   0   0   0   0   0   0   0   0   0   0   0
15   0   0   0   0   0   0   0   0   0   0   0   0   0   0   0   0   0   0   0
16   0   0   0   0   0   0   0   0   0   0   0   0   0   0   0   0   0   0   0
17   0   0   0   0   0   0   0   0   0   0   0   0   0   0   0   0   0   0   0
18   0   0   0   0   0   0   0   0   0   0   0   0   0   0   0   0   0   0   0
19   0   0   0   0   0   0   0   0   0   0   0   0   0   0   0   0   0   0   0
20   0   0   0   0   0   0   0   0   0   0   0   0   0   0   0   0   0   0   0
21   0   0   0   0   0   0   0   0   0   0   0   0   0   0   0   0   0   0   0
22   0   0   0   0   0   0   0   0   0   0   0   0   0   0   0   0   0   0   0
23   0   0   0   0   0   0   0   0   0   0   0   0   0   0   0   0   0   0   0
24   0   0   0   0   0   0   0   0   0   0   0   0   0   0   0   0   0   0   0
25   0   0   0   0   0   0   0   0   0   0   0   0   0   0   0   0   0   0   0
26   0   0   0   0   0   0   0   0   0   0   0   0   0   0   0   0   0   0   0
27   0   0   0   0   0   0   0   0   0   0   0   0   0   0   0   0   0   0   0
28   0   0   0   0   0   0   0   0   0   0   0   0   0   0   0   0   0   0   0
29   0   0   0   0   0   0   0   0   0   0   0   0   0   0   0   0   0   0   0
30   0   0   0   0   0   0   0   0   0   0   0   0   0   0   0   0   0   0   0
31   0   0   0   0   0   0   0   0   0   0   0   0   0   0   0   0   0   0   0
32   0   0   0   0   0   0   0   0   0   0   0   0   0   0   0   0   0   0   0
33   0   0   0   0   0   0   0   0   0   0   0   0   0   0   0   0   0   0   0
34   0   0   0   0   0   0   0   0   0   0   0   0   0   0   0   0   0   0   0
35   0   0   0   0   0   0   0   0   0   0   0   0   0   0   0   0   0   0   0
36   0   0   0   0   0   0   0   0   0   0   0   0   0   0   0   0   0   0   0
37   0   0   0   0   0   0   0   0   0   0   0   0   0   0   0   0   0   0   0
38   0   0   0   0   0   0   0   0   0   0   0   0   0   0   0   0   0   0   0
39   0   0   0   0   0   0   0   0   0   0   0   0   0   0   0   0   0   0   0
40   0   0   0   0   0   0   0   0   0   0   0   0   0   0   0   0   0   0   0

:   39  40    :=
1    0   0
2    0   0
3    0   0
4    0   0
5    0   0
6    0   0
7    0   0
8    0   0
9    0   0
10   0   0
11   0   0
12   0   0
13   0   0
14   0   0
15   0   0
16   0   0
17   0   0
18   0   0
19   0   0
20   0   0
21   0   0
22   0   0
23   0   0
24   0   0
25   0   0
26   0   0
27   0   0
28   0   0
29   0   0
30   0   0
31   0   0
32   0   0
33   0   0
34   0   0
35   0   0
36   0   0
37   0   0
38   0   0
39   0   0
40   0   0
;

VMs = 12


-----------------------------------------------------------------------------
  			 			Violated cover inequalities	        		        
-----------------------------------------------------------------------------

----------------------------------- Iter: 0 ---------------------------------
Instantiated VMs=12 
SEP=2.000 
VM[1]
u [*] :=
 1 1    5 0    9 0   13 0   17 0   21 0   25 0   29 0   33 0   37 0
 2 1    6 0   10 0   14 0   18 0   22 0   26 0   30 0   34 0   38 0
 3 1    7 0   11 0   15 0   19 1   23 0   27 0   31 0   35 0   39 1
 4 0    8 0   12 1   16 0   20 0   24 0   28 0   32 0   36 0   40 0
;

SEP=3.000 
VM[2]
u [*] :=
 1 0    5 1    9 0   13 0   17 0   21 0   25 0   29 0   33 0   37 1
 2 0    6 0   10 0   14 0   18 0   22 0   26 0   30 0   34 0   38 0
 3 0    7 1   11 0   15 0   19 1   23 0   27 0   31 0   35 1   39 0
 4 1    8 0   12 0   16 0   20 0   24 0   28 0   32 0   36 0   40 0
;

SEP=2.000 
VM[3]
u [*] :=
 1 0    5 0    9 1   13 0   17 0   21 1   25 0   29 0   33 0   37 0
 2 0    6 1   10 0   14 1   18 0   22 0   26 0   30 0   34 0   38 0
 3 0    7 0   11 0   15 0   19 0   23 0   27 0   31 0   35 0   39 0
 4 0    8 1   12 0   16 0   20 0   24 1   28 0   32 0   36 0   40 0
;

SEP=2.000 
VM[4]
u [*] :=
 1 0    5 0    9 0   13 0   17 0   21 0   25 0   29 0   33 0   37 0
 2 0    6 0   10 1   14 0   18 0   22 0   26 0   30 1   34 0   38 0
 3 0    7 0   11 1   15 1   19 0   23 0   27 0   31 0   35 0   39 0
 4 0    8 0   12 1   16 0   20 0   24 0   28 1   32 0   36 0   40 0
;

SEP=2.000 
VM[5]
u [*] :=
 1 0    5 0    9 0   13 1   17 1   21 0   25 0   29 0   33 0   37 0
 2 0    6 0   10 0   14 0   18 0   22 0   26 0   30 0   34 0   38 0
 3 0    7 0   11 0   15 0   19 1   23 1   27 0   31 0   35 0   39 0
 4 0    8 0   12 1   16 1   20 0   24 0   28 0   32 0   36 0   40 0
;

SEP=2.000 
VM[6]
u [*] :=
 1 0    5 0    9 0   13 0   17 0   21 0   25 0   29 0   33 0   37 1
 2 0    6 0   10 0   14 0   18 1   22 0   26 1   30 0   34 0   38 0
 3 0    7 0   11 0   15 0   19 1   23 0   27 0   31 0   35 1   39 0
 4 0    8 0   12 0   16 0   20 1   24 0   28 0   32 0   36 0   40 0
;

SEP=2.000 
VM[7]
u [*] :=
 1 0    5 0    9 0   13 0   17 0   21 1   25 0   29 0   33 0   37 1
 2 0    6 0   10 0   14 0   18 0   22 1   26 0   30 0   34 0   38 0
 3 0    7 0   11 0   15 0   19 0   23 0   27 0   31 0   35 1   39 0
 4 0    8 0   12 0   16 0   20 0   24 1   28 0   32 0   36 0   40 1
;

SEP=2.000 
VM[8]
u [*] :=
 1 0    5 0    9 0   13 0   17 0   21 0   25 1   29 0   33 0   37 1
 2 0    6 0   10 0   14 0   18 0   22 0   26 0   30 0   34 0   38 0
 3 0    7 0   11 0   15 0   19 0   23 0   27 1   31 0   35 0   39 0
 4 0    8 0   12 0   16 0   20 0   24 0   28 1   32 0   36 0   40 1
;

SEP=3.000 
VM[9]
u [*] :=
 1 0    5 0    9 0   13 0   17 0   21 0   25 0   29 1   33 0   37 1
 2 0    6 0   10 0   14 0   18 0   22 0   26 0   30 1   34 1   38 0
 3 0    7 0   11 0   15 0   19 0   23 0   27 0   31 0   35 0   39 0
 4 0    8 0   12 0   16 0   20 0   24 0   28 1   32 0   36 0   40 1
;

SEP=3.000 
VM[10]
u [*] :=
 1 0    5 0    9 0   13 0   17 0   21 0   25 0   29 0   33 0   37 1
 2 0    6 0   10 0   14 0   18 0   22 0   26 0   30 1   34 0   38 0
 3 0    7 0   11 0   15 0   19 0   23 0   27 0   31 1   35 1   39 0
 4 0    8 0   12 0   16 0   20 0   24 0   28 0   32 1   36 0   40 1
;

SEP=3.000 
VM[11]
u [*] :=
 1 0    5 0    9 0   13 0   17 0   21 0   25 0   29 0   33 1   37 1
 2 0    6 0   10 0   14 0   18 0   22 0   26 0   30 0   34 0   38 0
 3 0    7 0   11 0   15 0   19 1   23 0   27 0   31 0   35 1   39 0
 4 0    8 0   12 0   16 0   20 0   24 0   28 0   32 0   36 1   40 0
;

SEP=3.000 
VM[12]
u [*] :=
 1 0    5 0    9 0   13 0   17 0   21 0   25 0   29 0   33 0   37 1
 2 0    6 0   10 0   14 0   18 0   22 0   26 0   30 0   34 0   38 1
 3 0    7 0   11 0   15 0   19 1   23 0   27 0   31 0   35 1   39 0
 4 0    8 0   12 0   16 0   20 0   24 0   28 0   32 0   36 1   40 0
;

Optimal values of VMs for LP with all violated cover inequalities:
VMs = 12

Total number of cover inequalities considered: 0
